qbf_easy_train/easy_4750_SAT.qdimacs
p cnf 26 64
a 10 20 14 0
e 1 2 3 4 5 6 7 8 9 11 12 13 15 16 17 18 19 21 22 23 24 25 26 0
3 -1 0
3 -2 0
1 2 -3 0
-6 -4 0
-6 -5 0
4 5 6 0
8 -7 0
8 -7 0
7 -8 0
9 -8 0
9 -5 0
8 5 -9 0
-10 -6 0
-10 -9 0
6 9 10 0
11 8 0
11 -5 0
-8 5 -11 0
-11 -2 -12 0
11 2 -12 0
-11 2 12 0
11 -2 12 0
13 -1 0
13 5 0
1 -5 -13 0
16 14 0
16 -15 0
-14 15 -16 0
-17 13 0
-17 16 0
-13 -16 17 0
-19 18 0
-19 18 0
-18 19 0
-20 17 0
-20 -19 0
-17 19 20 0
21 12 0
21 20 0
-12 -20 -21 0
-22 4 0
-22 11 0
-4 -11 22 0
22 -8 -23 0
-22 8 -23 0
22 8 23 0
-22 -8 23 0
-24 21 0
-24 -23 0
-21 23 24 0
-25 10 0
-25 -24 0
-10 24 25 0
3 25 -26 0
-3 -25 -26 0
3 -25 26 0
-3 25 26 0
-6 -22 -1 25 10 -8 -14 17 0
2 -11 0
18 -9 -21 -26 12 4 0
5 6 11 -17 -3 0
-19 -6 -10 13 -23 1 0
-3 -8 23 -9 0
26 0
