sat_easy_train/easy_4750_SAT.dimacs
p cnf 89 278
4 2 0
4 -3 0
-2 3 -4 0
6 4 0
6 -5 0
-4 5 -6 0
-1 6 -7 0
1 -6 -7 0
-1 -6 7 0
1 6 7 0
8 9 -10 0
-8 -9 -10 0
8 -9 10 0
-8 9 10 0
-10 -9 -11 0
10 9 -11 0
-10 9 11 0
10 -9 11 0
12 4 0
12 -11 0
-4 11 -12 0
-2 -3 -13 0
2 3 -13 0
-2 3 13 0
2 -3 13 0
14 -12 0
14 13 0
12 -13 -14 0
15 14 0
15 -10 0
-14 10 -15 0
16 -7 0
16 15 0
7 -15 -16 0
-18 -17 0
-18 9 0
17 -9 18 0
-19 -20 -21 0
19 20 -21 0
-19 20 21 0
19 -20 21 0
-18 21 -22 0
18 -21 -22 0
-18 -21 22 0
18 21 22 0
-16 22 -23 0
16 -22 -23 0
-16 -22 23 0
16 22 23 0
26 24 0
26 25 0
-24 -25 -26 0
-27 10 0
-27 5 0
-10 -5 27 0
28 26 0
28 27 0
-26 -27 -28 0
-29 -12 -30 0
29 12 -30 0
-29 12 30 0
29 -12 30 0
-31 -21 0
-31 30 0
21 -30 31 0
-32 -4 0
-32 -3 0
4 3 32 0
33 -31 0
33 -32 0
31 32 -33 0
34 -33 0
34 -26 0
33 26 -34 0
36 35 0
36 3 0
-35 -3 -36 0
37 -14 0
37 -36 0
14 36 -37 0
-38 37 0
-38 -4 0
-37 4 38 0
39 -1 0
39 17 0
1 -17 -39 0
41 -4 0
41 40 0
4 -40 -41 0
-42 -26 0
-42 41 0
26 -41 42 0
43 39 0
43 -42 0
-39 42 -43 0
-44 38 0
-44 -43 0
-38 43 44 0
45 -34 0
45 44 0
34 -44 -45 0
46 20 0
46 -13 0
-20 13 -46 0
-47 30 0
-47 -6 0
-30 6 47 0
-48 -21 0
-48 -47 0
21 47 48 0
49 -46 0
49 -48 0
46 48 -49 0
-50 45 0
-50 -49 0
-45 49 50 0
-11 29 -51 0
11 -29 -51 0
-11 -29 51 0
11 29 51 0
-52 50 0
-52 51 0
-50 -51 52 0
53 28 0
53 -52 0
-28 52 -53 0
-3 9 -55 0
3 -9 -55 0
-3 -9 55 0
3 9 55 0
56 2 0
56 -20 0
-2 20 -56 0
57 55 0
57 56 0
-55 -56 -57 0
-58 54 0
-58 -57 0
-54 57 58 0
-59 2 0
-59 -30 0
-2 30 59 0
59 14 -60 0
-59 -14 -60 0
59 -14 60 0
-59 14 60 0
61 60 0
61 -2 0
-60 2 -61 0
58 -61 -62 0
-58 61 -62 0
58 61 62 0
-58 -61 62 0
63 -53 0
63 62 0
53 -62 -63 0
64 -23 0
64 63 0
23 -63 -64 0
-65 1 0
-65 -5 0
-1 5 65 0
66 65 0
66 14 0
-65 -14 -66 0
-64 -66 -67 0
64 66 -67 0
-64 66 67 0
64 -66 67 0
19 15 -68 0
-19 -15 -68 0
19 -15 68 0
-19 15 68 0
-41 -60 -69 0
41 60 -69 0
-41 60 69 0
41 -60 69 0
-18 41 -70 0
18 -41 -70 0
-18 -41 70 0
18 41 70 0
70 9 -71 0
-70 -9 -71 0
70 -9 71 0
-70 9 71 0
72 69 0
72 -71 0
-69 71 -72 0
74 -29 0
74 21 0
29 -21 -74 0
-75 -73 0
-75 74 0
73 -74 75 0
-56 -37 -76 0
56 37 -76 0
-56 37 76 0
56 -37 76 0
77 75 0
77 76 0
-75 -76 -77 0
-78 72 0
-78 -77 0
-72 77 78 0
68 78 -79 0
-68 -78 -79 0
68 -78 79 0
-68 78 79 0
80 67 0
80 -79 0
-67 79 -80 0
-29 -40 -81 0
29 40 -81 0
-29 40 81 0
29 -40 81 0
82 -54 0
82 -18 0
54 18 -82 0
83 82 0
83 33 0
-82 -33 -83 0
-84 -81 0
-84 -83 0
81 83 84 0
-26 -42 -85 0
26 42 -85 0
-26 42 85 0
26 -42 85 0
-86 -84 0
-86 -85 0
84 85 86 0
-87 80 0
-87 -86 0
-80 86 87 0
-8 29 -88 0
8 -29 -88 0
-8 -29 88 0
8 29 88 0
89 87 0
89 -88 0
-87 88 -89 0
-56 15 58 0
-65 71 0
-41 -64 39 -71 0
-43 -66 82 -74 6 0
-38 37 15 0
-6 -82 26 0
-51 16 0
65 -8 -38 0
8 -59 -65 -76 12 -63 0
-19 8 -61 81 -79 0
-73 -34 -57 14 0
37 73 -22 0
-37 -9 0
-11 59 38 9 0
87 11 -81 0
-19 32 -37 0
-41 -67 0
71 24 65 -69 38 0
-66 3 54 -12 -83 0
-23 68 -44 0
22 15 0
-60 27 -74 -48 -75 0
-82 -60 75 34 -86 -65 0
-69 89 37 75 0
24 35 0
39 1 0
36 -6 -80 -31 0
-25 -21 44 0
-73 -34 -47 0
55 33 19 69 0
66 -22 0
5 50 -74 35 84 -60 0
-9 49 -70 23 -75 10 0
36 -26 -16 -41 0
65 -69 -83 -75 71 15 0
-66 -29 52 -36 -32 81 0
89 0
